NAME : cgl_17.5602.tour
COMMENT : Length = 5602
COMMENT : Found by LKH-3 [Keld Helsgaun] Fri Nov  8 19:20:29 2024
TYPE : TOUR
DIMENSION : 17
TOUR_SECTION
13
17
1
2
3
4
5
6
7
8
11
15
9
12
10
16
14
-1
EOF
